# Solution for model meiosis_srl_ilp
# Objective value = 1.0503800423921508e+00
Z_97_1_0 0
Z_97_1_1 1
Z_97_1_2 0
Z_97_1_3 0
Z_112_1_0 0
Z_112_1_1 0
Z_112_1_2 0
Z_112_1_3 1
Z_62_1_0 0
Z_62_1_1 0
Z_62_1_2 1
Z_62_1_3 0
